2 20
496 511 
0 34 20 19 38 67 74 1
1 79 76 87 19 98 24 2
2 16 82 17 53 30 45 1
3 68 95 45 42 32 60 1
4 46 24 14 67 29 24 1
5 37 10 46 56 16 90 2
6 18 61 66 96 80 87 2
7 8 60 40 98 30 12 1
8 15 85 67 60 37 23 2
9 7 70 75 17 84 67 1
10 15 8 8 54 93 78 1
11 7 7 72 18 51 41 2
12 11 32 72 75 80 64 2
13 66 52 7 99 11 8 1
14 87 25 60 51 20 25 1
15 12 85 57 7 58 93 2
16 58 61 3 48 65 23 2
17 46 60 83 55 81 4 1
18 95 41 31 64 15 22 1
19 58 38 54 5 95 11 2
